# Solution for model DSBMDEA
# Objective value = 8.5661764705882359e-01
C0(4) 0
C1(4) 0
C2(4) 0
C3(4) 0
C4(4) 0
C5(4) 1
C6(4) 0
C7(4) 0
C8(5) 0
C9(5) 0
C10(5) 2.9411764705882354e-01
C11(5) 0
C12(5) 0
C13(5) 1.1764705882352935e-01
C14(5) 0
C15(5) 0
C16(5) 0
C17(5) 0
C18(5) 0
C19(5) 0
C20(5) 0
C21(5) 0
C22(5) 0
C23(5) 1
C24(4) 0
C25(4) 0
C26(4) 0
C27(4) 0
C28(4) 0
C29(4) 0
C30(4) 0
C31(4) 1
C32(1) 10
C33(1) 1.4235294117647060e+01
C34(1) 0
C35(1) 0
C36(1) 0
C37(1) 0
C38(1) 0
C39(1) 0
C40(1) 0
C41(1) 0
C42(1) 0
C43(1) 0
